Copyright (C) 2013-2015, Filipe Brandao
Build (method = -2)
  #dp: 76038
  Step-3' Graph: 392 vertices and 33193 arcs (0.23s)
  Step-4' Graph: 387 vertices and 33183 arcs (0.24s)
  #V4/#V3 = 0.99
  #A4/#A3 = 1.00
Ready! (0.24s)
Optimize a model with 660 rows, 33184 columns and 98784 nonzeros
Presolve removed 94 rows and 94 columns
Presolve time: 0.13s
Presolved: 566 rows, 33090 columns, 98372 nonzeros
Variable types: 0 continuous, 33090 integer (6224 binary)
Optimize a model with 566 rows, 33090 columns and 98372 nonzeros
Presolved: 566 rows, 33090 columns, 98372 nonzeros

Root barrier log...

Ordering time: 0.01s

Barrier statistics:
 AA' NZ     : 6.352e+04
 Factor NZ  : 1.145e+05 (roughly 14 MBytes of memory)
 Factor Ops : 3.107e+07 (less than 1 second per iteration)
 Threads    : 1

                  Objective                Residual
Iter       Primal          Dual         Primal    Dual     Compl     Time
   0   1.66785766e+05 -9.79370419e+05  2.41e+06 1.48e-01  4.26e+02     0s
   1   5.38245933e+04 -2.57497159e+05  4.38e+05 7.77e-16  7.94e+01     0s
   2   8.15729766e+03 -8.02102728e+04  3.92e+04 4.88e-15  7.93e+00     0s
   3   2.20772897e+03 -4.46060062e+04  4.08e+03 2.27e-03  1.33e+00     0s
   4   1.63705851e+03 -1.80128249e+04  1.15e+03 5.73e-04  4.30e-01     0s
   5   1.16201761e+03 -5.46309733e+03  3.06e+02 1.13e-04  1.27e-01     0s
   6   9.35240124e+02 -3.01996547e+03  1.58e+02 4.29e-05  7.14e-02     0s
   7   8.10293257e+02 -2.27724414e+03  9.89e+01 2.29e-05  5.32e-02     0s
   8   7.42293625e+02 -1.60706095e+03  7.43e+01 4.82e-15  3.99e-02     0s
   9   7.33772059e+02 -1.35179662e+03  7.20e+01 4.19e-15  3.56e-02     0s
  10   6.95081833e+02 -1.09720673e+03  6.29e+01 4.60e-15  3.04e-02     0s
  11   6.46089541e+02 -8.61258207e+02  5.19e+01 4.23e-15  2.54e-02     0s
  12   5.18776937e+02 -3.70086171e+02  2.53e+01 3.88e-15  1.45e-02     0s
  13   4.84866891e+02 -2.63610048e+02  2.10e+01 4.19e-15  1.22e-02     0s
  14   3.77207651e+02  1.14572171e+01  8.07e+00 3.13e-15  5.83e-03     0s
  15   3.46576642e+02  1.25900153e+02  4.88e+00 3.52e-15  3.49e-03     0s
  16   3.37935446e+02  1.98204698e+02  3.90e+00 3.21e-15  2.22e-03     0s
  17   3.26976328e+02  2.11548308e+02  2.76e+00 3.35e-15  1.81e-03     0s
  18   3.23448347e+02  2.24164630e+02  2.11e+00 4.76e-15  1.55e-03     0s
  19   3.20270289e+02  2.41622037e+02  1.37e+00 4.57e-15  1.21e-03     0s
  20   3.19476451e+02  2.63996612e+02  1.22e+00 4.08e-15  8.57e-04     0s
  21   3.15450613e+02  2.79341972e+02  8.04e-01 3.60e-15  5.55e-04     0s
  22   3.11799922e+02  2.88073531e+02  4.21e-01 3.59e-15  3.62e-04     0s
  23   3.10311275e+02  2.95825903e+02  2.52e-01 3.45e-15  2.20e-04     0s
  24   3.09882641e+02  2.99188916e+02  2.08e-01 3.81e-15  1.62e-04     0s
  25   3.09585043e+02  3.00751824e+02  1.80e-01 4.09e-15  1.34e-04     0s
  26   3.09176438e+02  3.02071554e+02  1.41e-01 3.77e-15  1.08e-04     0s
  27   3.09120299e+02  3.02734809e+02  1.35e-01 3.79e-15  9.69e-05     0s
  28   3.08549061e+02  3.04222420e+02  7.98e-02 3.55e-15  6.55e-05     0s
  29   3.08208682e+02  3.05060485e+02  4.89e-02 3.70e-15  4.76e-05     0s
  30   3.08144653e+02  3.05524352e+02  4.34e-02 3.90e-15  3.97e-05     0s
  31   3.08058347e+02  3.05871484e+02  3.62e-02 4.37e-15  3.31e-05     1s
  32   3.07940959e+02  3.06193545e+02  2.69e-02 4.89e-15  2.64e-05     1s
  33   3.07813035e+02  3.06491020e+02  1.76e-02 5.10e-15  2.00e-05     1s
  34   3.07771448e+02  3.06761100e+02  1.52e-02 5.20e-15  1.53e-05     1s
  35   3.07700563e+02  3.06919580e+02  1.02e-02 3.66e-15  1.18e-05     1s
  36   3.07654848e+02  3.07194480e+02  6.82e-03 3.77e-15  6.96e-06     1s
  37   3.07640795e+02  3.07223390e+02  6.06e-03 6.22e-15  6.31e-06     1s
  38   3.07621799e+02  3.07267668e+02  4.99e-03 5.00e-15  5.35e-06     1s
  39   3.07615255e+02  3.07347958e+02  4.59e-03 6.11e-15  4.04e-06     1s
  40   3.07572383e+02  3.07458501e+02  2.07e-03 3.17e-15  1.72e-06     1s
  41   3.07550895e+02  3.07488627e+02  1.25e-03 2.97e-15  9.42e-07     1s
  42   3.07529372e+02  3.07511615e+02  4.62e-04 2.89e-15  2.69e-07     1s
  43   3.07515111e+02  3.07515007e+02  1.08e-12 3.03e-15  1.57e-09     1s
  44   3.07515091e+02  3.07515090e+02  2.10e-13 3.04e-15  1.57e-12     1s

Barrier solved model in 44 iterations and 0.69 seconds
Optimal objective 3.07515091e+02


Root relaxation: objective 3.075151e+02, 4460 iterations, 0.78 seconds

    Nodes    |    Current Node    |     Objective Bounds      |     Work
 Expl Unexpl |  Obj  Depth IntInf | Incumbent    BestBd   Gap | It/Node Time

     0     0  307.51509    0  116          -  307.51509     -      -    2s
H    0     0                     310.0000000  307.51509  0.80%     -    3s
H    0     0                     309.0000000  307.51509  0.48%     -    5s
H    0     0                     308.0000000  307.51509  0.16%     -    6s

Explored 0 nodes (12359 simplex iterations) in 6.30 seconds
Thread count was 1 (of 4 available processors)

Optimal solution found (tolerance 0.00e+00)
Best objective 3.080000000000e+02, best bound 3.080000000000e+02, gap 0.0%
Preprocessing time: 0.29 seconds
Gurobi run time: 6.30 seconds
Total run time: 6.59 seconds
Objective: 308
Solution:
1 x [i=1, i=182]
2 x [i=2, i=181]
2 x [i=3, i=226, i=272]
2 x [i=3, i=236, i=263]
3 x [i=4, i=224, i=273]
1 x [i=4, i=242, i=257]
1 x [i=4, i=244, i=255]
1 x [i=5, i=179]
2 x [i=6, i=178]
2 x [i=7, i=177]
2 x [i=8, i=176]
1 x [i=9, i=175]
2 x [i=9, i=220, i=272]
2 x [i=10, i=174]
1 x [i=10, i=232, i=261]
3 x [i=10, i=247, i=247]
1 x [i=11, i=173]
2 x [i=11, i=222, i=269]
6 x [i=12, i=172]
2 x [i=13, i=171]
1 x [i=14, i=170]
1 x [i=15, i=170]
2 x [i=15, i=223, i=265]
1 x [i=15, i=230, i=259]
1 x [i=15, i=243, i=246]
2 x [i=16, i=169]
2 x [i=16, i=227, i=261]
2 x [i=17, i=168]
1 x [i=17, i=231, i=255]
1 x [i=18, i=167]
2 x [i=19, i=166]
2 x [i=19, i=212, i=270]
4 x [i=20, i=165]
3 x [i=21, i=164]
2 x [i=22, i=163]
1 x [i=22, i=226, i=256]
1 x [i=23, i=215, i=264]
1 x [i=24, i=162]
3 x [i=24, i=219, i=260]
1 x [i=25, i=161]
4 x [i=26, i=160]
2 x [i=26, i=235, i=242]
2 x [i=27, i=159]
1 x [i=27, i=207, i=268]
2 x [i=28, i=158]
3 x [i=28, i=202, i=270]
1 x [i=29, i=157]
3 x [i=30, i=156]
1 x [i=30, i=213, i=260]
2 x [i=31, i=155]
1 x [i=31, i=224, i=248]
1 x [i=32, i=154]
1 x [i=32, i=217, i=254]
1 x [i=32, i=218, i=253]
3 x [i=33, i=153]
1 x [i=33, i=253]
3 x [i=34, i=152]
1 x [i=35, i=151]
2 x [i=35, i=216, i=252]
2 x [i=35, i=225, i=244]
4 x [i=36, i=150]
3 x [i=37, i=149]
1 x [i=38, i=148]
1 x [i=38, i=204, i=261]
1 x [i=38, i=208, i=257]
2 x [i=38, i=211, i=254]
1 x [i=38, i=229, i=237]
2 x [i=39, i=147]
1 x [i=39, i=220, i=245]
3 x [i=40, i=146]
1 x [i=41, i=145]
1 x [i=42, i=144]
1 x [i=43, i=143]
1 x [i=44, i=262]
2 x [i=45, i=142]
1 x [i=45, i=221, i=238]
4 x [i=46, i=141]
1 x [i=46, i=191, i=267]
3 x [i=47, i=140]
1 x [i=48, i=139]
1 x [i=48, i=198, i=258]
1 x [i=48, i=214, i=242]
2 x [i=49, i=138]
1 x [i=50, i=137]
3 x [i=51, i=136]
1 x [i=51, i=193, i=261]
1 x [i=52, i=135]
2 x [i=53, i=134]
1 x [i=53, i=180, i=271]
1 x [i=53, i=210, i=241]
1 x [i=54, i=133]
2 x [i=55, i=132]
1 x [i=56, i=131]
3 x [i=57, i=129]
1 x [i=58, i=128]
1 x [i=59, i=127]
1 x [i=59, i=180, i=266]
1 x [i=60, i=126]
1 x [i=60, i=194, i=250]
1 x [i=60, i=210, i=233]
1 x [i=60, i=211, i=232]
3 x [i=61, i=125]
3 x [i=62, i=124]
2 x [i=63, i=122]
3 x [i=63, i=123]
1 x [i=64, i=120]
1 x [i=64, i=199, i=239]
3 x [i=65, i=119]
2 x [i=65, i=177, i=263]
1 x [i=65, i=215, i=222]
1 x [i=66, i=117]
1 x [i=66, i=118]
1 x [i=66, i=192, i=244]
1 x [i=66, i=207, i=228]
2 x [i=67, i=116]
2 x [i=68, i=183, i=251]
1 x [i=68, i=186, i=248]
2 x [i=68, i=190, i=244]
4 x [i=69, i=115]
2 x [i=70, i=113]
1 x [i=70, i=114]
2 x [i=70, i=206, i=224]
2 x [i=71, i=112]
1 x [i=71, i=192, i=238]
1 x [i=71, i=213, i=216]
1 x [i=72, i=111]
2 x [i=73, i=109]
1 x [i=74, i=109]
1 x [i=74, i=182, i=245]
2 x [i=74, i=187, i=240]
1 x [i=75, i=108]
2 x [i=75, i=179, i=249]
1 x [i=75, i=199, i=226]
2 x [i=76, i=107]
2 x [i=77, i=106]
4 x [i=78, i=105]
1 x [i=78, i=195, i=228]
3 x [i=79, i=104]
2 x [i=79, i=167, i=258]
1 x [i=79, i=194, i=228]
2 x [i=80, i=103]
3 x [i=81, i=102]
1 x [i=82, i=101]
1 x [i=82, i=187, i=232]
2 x [i=82, i=202, i=215]
2 x [i=83, i=100]
2 x [i=84, i=99]
1 x [i=85, i=98]
2 x [i=86, i=97]
1 x [i=87, i=186, i=229]
2 x [i=88, i=96]
1 x [i=89, i=161, i=256]
1 x [i=89, i=170, i=245]
1 x [i=89, i=186, i=227]
2 x [i=89, i=189, i=223]
1 x [i=89, i=197, i=214]
2 x [i=90, i=95]
1 x [i=90, i=184, i=228]
1 x [i=90, i=200, i=210]
1 x [i=90, i=201, i=208]
1 x [i=91, i=93]
1 x [i=91, i=200, i=208]
1 x [i=91, i=202, i=205]
1 x [i=91, i=203, i=204]
1 x [i=92, i=92]
1 x [i=94, i=201, i=203]
1 x [i=96, i=187, i=217]
1 x [i=97, i=143, i=262]
1 x [i=98, i=200, i=200]
1 x [i=100, i=133, i=269]
1 x [i=102, i=131, i=269]
1 x [i=106, i=184, i=209]
1 x [i=109, i=185, i=204]
1 x [i=110, i=182, i=206]
1 x [i=114, i=189, i=196]
1 x [i=116, i=149, i=237]
1 x [i=116, i=161, i=226]
3 x [i=118, i=182, i=198]
1 x [i=121, i=121, i=260]
2 x [i=123, i=130, i=249]
3 x [i=125, i=135, i=243]
1 x [i=125, i=143, i=234]
2 x [i=128, i=132, i=243]
1 x [i=129, i=157, i=217]
1 x [i=130, i=182, i=188]
1 x [i=131, i=131, i=241]
1 x [i=135, i=137, i=231]
1 x [i=138, i=144, i=221]
1 x [i=144, i=149, i=209]
1 x [i=145, i=161, i=197]
